exercise-06/reqarb/model/design_smt2.smt2
; SMT-LIBv2 description generated by Yosys 0.11+13 (git sha1 UNKNOWN, gcc 4.8.5 -fPIC -Os)
; yosys-smt2-module reqarb
(declare-sort |reqarb_s| 0)
(declare-fun |reqarb_is| (|reqarb_s|) Bool)
(declare-fun |reqarb#0| (|reqarb_s|) (_ BitVec 1)) ; \i_b_req
(declare-fun |reqarb#1| (|reqarb_s|) (_ BitVec 1)) ; \i_a_req
(declare-fun |reqarb#2| (|reqarb_s|) (_ BitVec 1)) ; \a_is_the_owner
(define-fun |reqarb#3| ((state |reqarb_s|)) (_ BitVec 1) (ite (= ((_ extract 0 0) (|reqarb#2| state)) #b1) (|reqarb#1| state) (|reqarb#0| state))) ; \o_req
; yosys-smt2-output o_req 1
; yosys-smt2-wire o_req 1
(define-fun |reqarb_n o_req| ((state |reqarb_s|)) Bool (= ((_ extract 0 0) (|reqarb#3| state)) #b1))
(declare-fun |reqarb#4| (|reqarb_s|) (_ BitVec 1)) ; \i_b_data
(declare-fun |reqarb#5| (|reqarb_s|) (_ BitVec 1)) ; \i_a_data
(define-fun |reqarb#6| ((state |reqarb_s|)) (_ BitVec 1) (ite (= ((_ extract 0 0) (|reqarb#2| state)) #b1) (|reqarb#5| state) (|reqarb#4| state))) ; \o_data
; yosys-smt2-output o_data 1
; yosys-smt2-wire o_data 1
(define-fun |reqarb_n o_data| ((state |reqarb_s|)) Bool (= ((_ extract 0 0) (|reqarb#6| state)) #b1))
(declare-fun |reqarb#7| (|reqarb_s|) Bool) ; \i_busy
(define-fun |reqarb#8| ((state |reqarb_s|)) Bool (or  (= ((_ extract 0 0) (|reqarb#2| state)) #b1) false  (|reqarb#7| state) false)) ; \o_b_busy
; yosys-smt2-output o_b_busy 1
; yosys-smt2-wire o_b_busy 1
(define-fun |reqarb_n o_b_busy| ((state |reqarb_s|)) Bool (|reqarb#8| state))
(define-fun |reqarb#9| ((state |reqarb_s|)) Bool (not (or  (= ((_ extract 0 0) (|reqarb#2| state)) #b1) false))) ; $logic_not$reqarb.v:99$14_Y
(define-fun |reqarb#10| ((state |reqarb_s|)) Bool (or  (|reqarb#9| state) false  (|reqarb#7| state) false)) ; \o_a_busy
; yosys-smt2-output o_a_busy 1
; yosys-smt2-wire o_a_busy 1
(define-fun |reqarb_n o_a_busy| ((state |reqarb_s|)) Bool (|reqarb#10| state))
(declare-fun |reqarb#11| (|reqarb_s|) Bool) ; \i_reset
; yosys-smt2-input i_reset 1
; yosys-smt2-wire i_reset 1
(define-fun |reqarb_n i_reset| ((state |reqarb_s|)) Bool (|reqarb#11| state))
(declare-fun |reqarb#12| (|reqarb_s|) Bool) ; \i_clk
; yosys-smt2-input i_clk 1
; yosys-smt2-wire i_clk 1
; yosys-smt2-clock i_clk posedge
(define-fun |reqarb_n i_clk| ((state |reqarb_s|)) Bool (|reqarb#12| state))
; yosys-smt2-input i_busy 1
; yosys-smt2-wire i_busy 1
(define-fun |reqarb_n i_busy| ((state |reqarb_s|)) Bool (|reqarb#7| state))
; yosys-smt2-input i_b_req 1
; yosys-smt2-wire i_b_req 1
(define-fun |reqarb_n i_b_req| ((state |reqarb_s|)) Bool (= ((_ extract 0 0) (|reqarb#0| state)) #b1))
; yosys-smt2-input i_b_data 1
; yosys-smt2-wire i_b_data 1
(define-fun |reqarb_n i_b_data| ((state |reqarb_s|)) Bool (= ((_ extract 0 0) (|reqarb#4| state)) #b1))
; yosys-smt2-input i_a_req 1
; yosys-smt2-wire i_a_req 1
(define-fun |reqarb_n i_a_req| ((state |reqarb_s|)) Bool (= ((_ extract 0 0) (|reqarb#1| state)) #b1))
; yosys-smt2-input i_a_data 1
; yosys-smt2-wire i_a_data 1
(define-fun |reqarb_n i_a_data| ((state |reqarb_s|)) Bool (= ((_ extract 0 0) (|reqarb#5| state)) #b1))
; yosys-smt2-register a_is_the_owner 1
; yosys-smt2-wire a_is_the_owner 1
(define-fun |reqarb_n a_is_the_owner| ((state |reqarb_s|)) Bool (= ((_ extract 0 0) (|reqarb#2| state)) #b1))
(declare-fun |reqarb#13| (|reqarb_s|) (_ BitVec 1)) ; $past$reqarb.v:116$4$0
; yosys-smt2-register $past$reqarb.v:116$4$0 1
(define-fun |reqarb_n $past$reqarb.v:116$4$0| ((state |reqarb_s|)) Bool (= ((_ extract 0 0) (|reqarb#13| state)) #b1))
(declare-fun |reqarb#14| (|reqarb_s|) (_ BitVec 1)) ; $past$reqarb.v:111$2$0
; yosys-smt2-register $past$reqarb.v:111$2$0 1
(define-fun |reqarb_n $past$reqarb.v:111$2$0| ((state |reqarb_s|)) Bool (= ((_ extract 0 0) (|reqarb#14| state)) #b1))
(declare-fun |reqarb#15| (|reqarb_s|) (_ BitVec 1)) ; $past$reqarb.v:109$1$0
; yosys-smt2-register $past$reqarb.v:109$1$0 1
(define-fun |reqarb_n $past$reqarb.v:109$1$0| ((state |reqarb_s|)) Bool (= ((_ extract 0 0) (|reqarb#15| state)) #b1))
; yosys-smt2-anyseq reqarb#16 1 $auto$setundef.cc:501:execute$102
(declare-fun |reqarb#16| (|reqarb_s|) (_ BitVec 1)) ; $auto$rtlil.cc:3068:Anyseq$103
(define-fun |reqarb#17| ((state |reqarb_s|)) Bool (= (|reqarb#13| state) (|reqarb#0| state))) ; $eq$reqarb.v:116$40_Y
(define-fun |reqarb#18| ((state |reqarb_s|)) Bool (and (or  (= ((_ extract 0 0) (|reqarb#0| state)) #b1) false) (or  (|reqarb#8| state) false))) ; $logic_and$reqarb.v:114$35_Y
(define-fun |reqarb#19| ((state |reqarb_s|)) Bool (not (or  (|reqarb#11| state) false))) ; $logic_not$reqarb.v:109$25_Y
(define-fun |reqarb#20| ((state |reqarb_s|)) Bool (and (or  (|reqarb#18| state) false) (or  (|reqarb#19| state) false))) ; $logic_and$reqarb.v:114$37_Y
(define-fun |reqarb#21| ((state |reqarb_s|)) Bool (not (or  (= ((_ extract 0 0) (|reqarb#15| state)) #b1) false))) ; $logic_not$reqarb.v:109$27_Y
(define-fun |reqarb#22| ((state |reqarb_s|)) Bool (and (or  (|reqarb#20| state) false) (or  (|reqarb#21| state) false))) ; $logic_and$reqarb.v:114$39_Y
(define-fun |reqarb#23| ((state |reqarb_s|)) (_ BitVec 1) (ite (|reqarb#22| state) (ite (|reqarb#17| state) #b1 #b0) (|reqarb#16| state))) ; $0$formal$reqarb.v:115$6_CHECK[0:0]$33
(define-fun |reqarb#24| ((state |reqarb_s|)) (_ BitVec 1) (ite (|reqarb#22| state) #b1 #b0)) ; $0$formal$reqarb.v:115$6_EN[0:0]$34
; yosys-smt2-assume 0 reqarb.v:115.7-116.27
(define-fun |reqarb_u 0| ((state |reqarb_s|)) Bool (or (= ((_ extract 0 0) (|reqarb#23| state)) #b1) (not (= ((_ extract 0 0) (|reqarb#24| state)) #b1)))) ; $assume$reqarb.v:115$57
; yosys-smt2-anyseq reqarb#25 1 $auto$setundef.cc:501:execute$104
(declare-fun |reqarb#25| (|reqarb_s|) (_ BitVec 1)) ; $auto$rtlil.cc:3068:Anyseq$105
(define-fun |reqarb#26| ((state |reqarb_s|)) Bool (= (|reqarb#14| state) (|reqarb#1| state))) ; $eq$reqarb.v:111$29_Y
(define-fun |reqarb#27| ((state |reqarb_s|)) Bool (and (or  (= ((_ extract 0 0) (|reqarb#1| state)) #b1) false) (or  (|reqarb#10| state) false))) ; $logic_and$reqarb.v:109$24_Y
(define-fun |reqarb#28| ((state |reqarb_s|)) Bool (and (or  (|reqarb#27| state) false) (or  (|reqarb#19| state) false))) ; $logic_and$reqarb.v:109$26_Y
(define-fun |reqarb#29| ((state |reqarb_s|)) Bool (and (or  (|reqarb#28| state) false) (or  (|reqarb#21| state) false))) ; $logic_and$reqarb.v:109$28_Y
(define-fun |reqarb#30| ((state |reqarb_s|)) (_ BitVec 1) (ite (|reqarb#29| state) (ite (|reqarb#26| state) #b1 #b0) (|reqarb#25| state))) ; $0$formal$reqarb.v:110$5_CHECK[0:0]$22
(define-fun |reqarb#31| ((state |reqarb_s|)) (_ BitVec 1) (ite (|reqarb#29| state) #b1 #b0)) ; $0$formal$reqarb.v:110$5_EN[0:0]$23
; yosys-smt2-assume 1 reqarb.v:110.7-111.27
(define-fun |reqarb_u 1| ((state |reqarb_s|)) Bool (or (= ((_ extract 0 0) (|reqarb#30| state)) #b1) (not (= ((_ extract 0 0) (|reqarb#31| state)) #b1)))) ; $assume$reqarb.v:110$56
(define-fun |reqarb#32| ((state |reqarb_s|)) Bool (not (or  (|reqarb#10| state) false))) ; $logic_not$reqarb.v:127$51_Y
(define-fun |reqarb#33| ((state |reqarb_s|)) Bool (and (or  (|reqarb#32| state) false) (or  (|reqarb#8| state) false))) ; $logic_and$reqarb.v:127$52_Y
(define-fun |reqarb#34| ((state |reqarb_s|)) Bool (not (or  (|reqarb#8| state) false))) ; $logic_not$reqarb.v:127$53_Y
(define-fun |reqarb#35| ((state |reqarb_s|)) Bool (and (or  (|reqarb#10| state) false) (or  (|reqarb#34| state) false))) ; $logic_and$reqarb.v:127$54_Y
(define-fun |reqarb#36| ((state |reqarb_s|)) Bool (or  (|reqarb#33| state) false  (|reqarb#35| state) false)) ; $logic_or$reqarb.v:127$55_Y
; yosys-smt2-anyseq reqarb#37 1 $auto$setundef.cc:501:execute$98
(declare-fun |reqarb#37| (|reqarb_s|) (_ BitVec 1)) ; $auto$rtlil.cc:3068:Anyseq$99
(define-fun |reqarb#38| ((state |reqarb_s|)) (_ BitVec 1) (ite (|reqarb#7| state) (|reqarb#37| state) (ite (|reqarb#36| state) #b1 #b0))) ; $0$formal$reqarb.v:126$8_CHECK[0:0]$48
(define-fun |reqarb#39| ((state |reqarb_s|)) (_ BitVec 1) (ite (|reqarb#7| state) #b0 #b1)) ; $0$formal$reqarb.v:122$7_EN[0:0]$43
; yosys-smt2-assert 0 reqarb.v:126.16-127.65
(define-fun |reqarb_a 0| ((state |reqarb_s|)) Bool (or (= ((_ extract 0 0) (|reqarb#38| state)) #b1) (not (= ((_ extract 0 0) (|reqarb#39| state)) #b1)))) ; $assert$reqarb.v:126$59
(define-fun |reqarb#40| ((state |reqarb_s|)) Bool (and (or  (|reqarb#10| state) false) (or  (|reqarb#8| state) false))) ; $logic_and$reqarb.v:123$45_Y
(define-fun |reqarb#41| ((state |reqarb_s|)) Bool (not (or  (|reqarb#40| state) false))) ; $logic_not$reqarb.v:123$46_Y
; yosys-smt2-anyseq reqarb#42 1 $auto$setundef.cc:501:execute$100
(declare-fun |reqarb#42| (|reqarb_s|) (_ BitVec 1)) ; $auto$rtlil.cc:3068:Anyseq$101
(define-fun |reqarb#43| ((state |reqarb_s|)) (_ BitVec 1) (ite (|reqarb#7| state) (|reqarb#42| state) (ite (|reqarb#41| state) #b1 #b0))) ; $0$formal$reqarb.v:122$7_CHECK[0:0]$42
; yosys-smt2-assert 1 reqarb.v:122.16-123.34
(define-fun |reqarb_a 1| ((state |reqarb_s|)) Bool (or (= ((_ extract 0 0) (|reqarb#43| state)) #b1) (not (= ((_ extract 0 0) (|reqarb#39| state)) #b1)))) ; $assert$reqarb.v:122$58
(define-fun |reqarb#44| ((state |reqarb_s|)) Bool (not (or  (= ((_ extract 0 0) (|reqarb#1| state)) #b1) false))) ; $logic_not$reqarb.v:96$12_Y
(define-fun |reqarb#45| ((state |reqarb_s|)) Bool (and (or  (= ((_ extract 0 0) (|reqarb#0| state)) #b1) false) (or  (|reqarb#44| state) false))) ; $logic_and$reqarb.v:96$13_Y
(define-fun |reqarb#46| ((state |reqarb_s|)) (_ BitVec 1) (ite (|reqarb#45| state) #b0 #b0)) ; $procmux$81_Y
(define-fun |reqarb#47| ((state |reqarb_s|)) Bool (not (or  (= ((_ extract 0 0) (|reqarb#0| state)) #b1) false))) ; $logic_not$reqarb.v:94$10_Y
(define-fun |reqarb#48| ((state |reqarb_s|)) Bool (and (or  (= ((_ extract 0 0) (|reqarb#1| state)) #b1) false) (or  (|reqarb#47| state) false))) ; $logic_and$reqarb.v:94$11_Y
(define-fun |reqarb#49| ((state |reqarb_s|)) (_ BitVec 1) (ite (|reqarb#48| state) #b1 (|reqarb#46| state))) ; $procmux$84_Y
(define-fun |reqarb#50| ((state |reqarb_s|)) Bool (or  (|reqarb#48| state) (|reqarb#45| state))) ; $auto$opt_dff.cc:197:make_patterns_logic$108
(define-fun |reqarb#51| ((state |reqarb_s|)) (_ BitVec 1) (ite (|reqarb#50| state) (|reqarb#49| state) (|reqarb#2| state))) ; $auto$rtlil.cc:2414:Mux$111
(define-fun |reqarb#52| ((state |reqarb_s|)) (_ BitVec 1) (ite (|reqarb#11| state) #b0 (|reqarb#51| state))) ; $auto$rtlil.cc:2414:Mux$113
(define-fun |reqarb_a| ((state |reqarb_s|)) Bool (and
  (|reqarb_a 0| state)
  (|reqarb_a 1| state)
))
(define-fun |reqarb_u| ((state |reqarb_s|)) Bool (and
  (|reqarb_u 0| state)
  (|reqarb_u 1| state)
))
(define-fun |reqarb_i| ((state |reqarb_s|)) Bool 
  (= (= ((_ extract 0 0) (|reqarb#2| state)) #b1) false) ; a_is_the_owner
)
(define-fun |reqarb_h| ((state |reqarb_s|)) Bool true)
(define-fun |reqarb_t| ((state |reqarb_s|) (next_state |reqarb_s|)) Bool (and
  (= (ite (|reqarb#11| state) #b1 #b0) (|reqarb#15| next_state)) ; $procdff$89 $past$reqarb.v:109$1$0
  (= (|reqarb#1| state) (|reqarb#14| next_state)) ; $procdff$94 $past$reqarb.v:111$2$0
  (= (|reqarb#0| state) (|reqarb#13| next_state)) ; $procdff$90 $past$reqarb.v:116$4$0
  (= (|reqarb#52| state) (|reqarb#2| next_state)) ; $auto$ff.cc:262:slice$107 \a_is_the_owner
)) ; end of module reqarb
; yosys-smt2-topmod reqarb
; end of yosys output
